<number of tasks>
58

<cycle time>
58

<task times>
1 10
2 53
3 41
4 36
5 35
6 17
7 34
8 23
9 14
10 52
11 33
12 34
13 12
14 52
15 12
16 33
17 44
18 7
19 15
20 13
21 29
22 37
23 43
24 23
25 24
26 9
27 16
28 12
29 26
30 22
31 51
32 47
33 34
34 23
35 12
36 52
37 12
38 33
39 44
40 7
41 15
42 13
43 29
44 37
45 43
46 23
47 24
48 9
49 16
50 12
51 26
52 12
53 52
54 12
55 33
56 44
57 7
58 15

<precedence relations>
1,9
2,25
3,21
3,22
4,10
5,36
6,23
6,24
7,43
8,44
9,11
11,13
11,14
11,15
12,17
13,17
14,17
15,17
16,18
17,20
18,19
19,23
20,21
20,25
21,26
21,44
22,27
23,31
24,31
25,38
26,29
27,30
28,32
28,33
29,31
30,34
31,36
32,45
33,35
34,36
35,43
36,37
36,38
37,39
37,40
37,41
38,52
39,43
40,43
41,42
42,43
43,45
44,45
45,46
45,48
45,49
46,47
46,50
47,51
48,55
49,58
50,58
51,52
52,53
53,54
54,55
54,56
55,57
56,57
57,58

<setup times forward>
1,2:4
1,3:5
1,4:7
1,5:5
1,6:5
1,7:1
1,8:2
1,10:6
1,16:2
1,18:1
1,19:3
1,22:3
1,23:4
1,24:6
1,27:1
1,28:2
1,30:7
1,32:1
1,33:4
1,34:5
1,35:4
2,1:4
2,3:1
2,4:11
2,5:1
2,6:1
2,7:5
2,8:6
2,9:4
2,10:10
2,11:2
2,12:4
2,13:1
2,14:4
2,15:8
2,16:6
2,17:1
2,18:3
2,19:7
2,20:6
2,21:6
2,22:7
2,23:8
2,24:10
2,25:5
2,26:10
2,27:5
2,28:2
2,29:10
2,30:11
2,31:2
2,32:3
2,34:1
2,36:3
2,41:8
2,42:8
2,43:8
2,44:5
2,45:1
2,46:6
2,47:6
2,48:6
2,49:5
2,50:9
2,51:9
3,1:5
3,2:1
3,4:12
3,7:6
3,8:7
3,9:5
3,10:11
3,11:3
3,12:5
3,13:2
3,14:5
3,15:9
3,16:7
3,17:2
3,18:4
3,19:8
3,20:7
3,21:7
3,22:8
3,23:9
3,24:11
3,25:6
3,28:3
3,32:4
3,33:1
3,35:1
4,1:7
4,2:11
4,3:12
4,5:12
4,6:12
4,7:6
4,8:5
4,9:7
4,10:1
4,11:9
4,12:7
4,13:10
4,14:7
4,15:3
4,16:5
4,17:10
4,18:8
4,19:4
4,20:5
4,21:5
4,22:4
4,23:3
4,24:1
4,25:6
4,26:1
4,27:6
4,28:9
4,29:1
4,31:9
4,32:8
4,33:11
4,34:12
4,35:11
4,36:8
4,37:11
4,38:6
4,39:11
4,40:11
4,41:3
4,42:3
4,43:3
4,44:6
4,45:10
4,46:5
4,47:5
4,48:5
4,49:6
4,50:2
4,51:2
4,52:2
4,54:8
4,55:1
4,56:8
4,57:1
4,58:1
5,1:5
5,2:1
5,4:12
5,7:6
5,8:7
5,9:5
5,10:11
5,11:3
5,12:5
5,13:2
5,14:5
5,15:9
5,16:7
5,17:2
5,18:4
5,19:8
5,20:7
5,21:7
5,22:8
5,23:9
5,24:11
5,25:6
5,26:11
5,27:6
5,28:3
5,29:11
5,30:12
5,31:3
5,32:4
5,33:1
5,35:1
5,36:4
5,44:6
6,1:5
6,2:1
6,4:12
6,7:6
6,8:7
6,9:5
6,10:11
6,11:3
6,12:5
6,13:2
6,14:5
6,15:9
6,16:7
6,17:2
6,18:4
6,19:8
6,20:7
6,21:7
6,22:8
6,23:9
6,24:11
6,25:6
6,26:11
6,27:6
6,28:3
6,29:11
6,30:12
6,32:4
6,33:1
6,35:1
6,44:6
7,1:1
7,2:5
7,3:6
7,4:6
7,5:6
7,6:6
7,8:1
7,9:1
7,10:5
7,11:3
7,12:1
7,13:4
7,14:1
7,15:3
7,16:1
7,17:4
7,18:2
7,19:2
7,20:1
7,21:1
7,22:2
7,23:3
7,24:5
7,26:5
7,28:3
7,29:5
7,30:6
7,31:3
7,32:2
7,33:5
7,34:6
7,35:5
7,36:2
7,37:5
7,39:5
7,40:5
7,41:3
7,42:3
7,43:3
8,1:2
8,2:6
8,3:7
8,4:5
8,5:7
8,6:7
8,7:1
8,9:2
8,10:4
8,11:4
8,12:2
8,13:5
8,14:2
8,15:2
8,17:5
8,18:3
8,19:1
8,22:1
8,23:2
8,24:4
8,25:1
8,26:4
8,27:1
8,28:4
8,29:4
8,30:5
8,31:4
8,32:3
8,33:6
8,34:7
8,35:6
8,36:3
8,37:6
8,38:1
8,39:6
8,40:6
8,41:2
8,42:2
8,43:2
8,44:1
9,2:4
9,3:5
9,4:7
9,5:5
9,6:5
9,7:1
9,8:2
9,10:6
9,11:2
9,16:2
9,18:1
9,19:3
9,22:3
9,23:4
9,24:6
9,27:1
9,28:2
9,30:7
9,32:1
9,33:4
9,34:5
9,35:4
10,1:6
10,2:10
10,3:11
10,5:11
10,6:11
10,7:5
10,8:4
10,9:6
10,11:8
10,12:6
10,13:9
10,14:6
10,15:2
10,16:4
10,17:9
10,18:7
10,19:3
10,20:4
10,21:4
10,22:3
10,23:2
10,25:5
10,27:5
10,28:8
10,30:1
10,31:8
10,32:7
10,33:10
10,34:11
10,35:10
10,36:7
10,37:10
10,38:5
10,39:10
10,40:10
10,41:2
10,42:2
10,43:2
10,44:5
10,45:9
10,46:4
10,47:4
10,48:4
10,49:5
10,50:1
10,51:1
10,52:1
10,53:1
10,54:7
10,56:7
11,2:2
11,3:3
11,4:9
11,5:3
11,6:3
11,7:3
11,8:4
11,10:8
11,12:2
11,13:1
11,14:2
11,15:6
11,16:4
11,18:1
11,19:5
11,22:5
11,23:6
11,24:8
11,27:3
11,30:9
11,32:1
11,33:2
11,34:3
11,35:2
12,2:4
12,3:5
12,4:7
12,5:5
12,6:5
12,7:1
12,8:2
12,10:6
12,11:2
12,13:3
12,15:4
12,16:2
12,17:3
12,18:1
12,19:3
12,22:3
12,23:4
12,24:6
12,27:1
12,28:2
12,30:7
12,32:1
12,33:4
12,34:5
12,35:4
13,2:1
13,3:2
13,4:10
13,5:2
13,6:2
13,7:4
13,8:5
13,10:9
13,12:3
13,14:3
13,15:7
13,16:5
13,18:2
13,19:6
13,22:6
13,23:7
13,24:9
13,27:4
13,28:1
13,30:10
13,32:2
13,33:1
13,34:2
13,35:1
14,2:4
14,3:5
14,4:7
14,5:5
14,6:5
14,7:1
14,8:2
14,10:6
14,13:3
14,15:4
14,16:2
14,17:3
14,18:1
14,19:3
14,22:3
14,23:4
14,24:6
14,27:1
14,28:2
14,30:7
14,32:1
14,33:4
14,34:5
14,35:4
15,2:8
15,3:9
15,4:3
15,5:9
15,6:9
15,7:3
15,8:2
15,10:2
15,12:4
15,13:7
15,14:4
15,16:2
15,17:7
15,18:5
15,19:1
15,22:1
15,24:2
15,27:3
15,28:6
15,30:3
15,32:5
15,33:8
15,34:9
15,35:8
16,1:2
16,2:6
16,3:7
16,4:5
16,5:7
16,6:7
16,7:1
16,9:2
16,10:4
16,11:4
16,12:2
16,13:5
16,14:2
16,15:2
16,17:5
16,18:3
16,22:1
16,24:4
16,25:1
16,26:4
16,27:1
16,28:4
16,29:4
16,30:5
16,32:3
16,33:6
16,34:7
16,35:6
16,44:1
17,2:1
17,3:2
17,4:10
17,5:2
17,6:2
17,7:4
17,8:5
17,10:9
17,16:5
17,18:2
17,19:6
17,20:5
17,22:6
17,23:7
17,24:9
17,27:4
17,28:1
17,30:10
17,32:2
17,33:1
17,34:2
17,35:1
18,1:1
18,2:3
18,3:4
18,4:8
18,5:4
18,6:4
18,7:2
18,8:3
18,9:1
18,10:7
18,11:1
18,12:1
18,13:2
18,14:1
18,15:5
18,17:2
18,19:4
18,20:3
18,21:3
18,22:4
18,24:7
18,25:2
18,26:7
18,27:2
18,28:1
18,29:7
18,30:8
18,33:3
18,34:4
18,35:3
18,44:2
19,1:3
19,2:7
19,3:8
19,4:4
19,5:8
19,6:8
19,7:2
19,8:1
19,9:3
19,10:3
19,11:5
19,12:3
19,13:6
19,14:3
19,15:1
19,17:6
19,20:1
19,21:1
19,23:1
19,24:3
19,25:2
19,26:3
19,27:2
19,28:5
19,29:3
19,30:4
19,32:4
19,33:7
19,34:8
19,35:7
19,44:2
20,2:6
20,3:7
20,4:5
20,5:7
20,6:7
20,7:1
20,10:4
20,18:3
20,19:1
20,22:1
20,23:2
20,24:4
20,25:1
20,27:1
20,28:4
20,30:5
20,32:3
20,33:6
20,34:7
20,35:6
21,2:6
21,4:5
21,5:7
21,6:7
21,7:1
21,10:4
21,18:3
21,19:1
21,22:1
21,23:2
21,24:4
21,25:1
21,26:4
21,27:1
21,28:4
21,30:5
21,32:3
21,33:6
21,34:7
21,35:6
21,44:1
22,1:3
22,2:7
22,4:4
22,5:8
22,6:8
22,7:2
22,8:1
22,9:3
22,10:3
22,11:5
22,12:3
22,13:6
22,14:3
22,15:1
22,16:1
22,17:6
22,18:4
22,20:1
22,21:1
22,23:1
22,24:3
22,25:2
22,26:3
22,27:2
22,28:5
22,29:3
22,31:5
22,32:4
22,33:7
22,35:7
22,44:2
23,1:4
23,2:8
23,3:9
23,4:3
23,5:9
23,7:3
23,8:2
23,9:4
23,10:2
23,11:6
23,12:4
23,13:7
23,14:4
23,17:7
23,20:2
23,21:2
23,22:1
23,24:2
23,25:3
23,26:2
23,27:3
23,28:6
23,29:2
23,30:3
23,31:6
23,32:5
23,33:8
23,34:9
23,35:8
23,44:3
24,1:6
24,2:10
24,3:11
24,4:1
24,5:11
24,7:5
24,8:4
24,9:6
24,11:8
24,12:6
24,13:9
24,14:6
24,15:2
24,16:4
24,17:9
24,18:7
24,19:3
24,20:4
24,21:4
24,22:3
24,23:2
24,25:5
24,27:5
24,28:8
24,30:1
24,31:8
24,32:7
24,33:10
24,34:11
24,35:10
24,44:5
25,3:6
25,4:6
25,5:6
25,6:6
25,8:1
25,10:5
25,16:1
25,18:2
25,19:2
25,21:1
25,22:2
25,23:3
25,24:5
25,26:5
25,28:3
25,29:5
25,30:6
25,31:3
25,32:2
25,33:5
25,34:6
25,35:5
25,36:2
25,37:5
25,39:5
25,40:5
25,41:3
25,42:3
25,43:3
25,45:4
25,46:1
25,47:1
25,48:1
25,50:4
25,51:4
26,2:10
26,4:1
26,5:11
26,6:11
26,7:5
26,8:4
26,16:4
26,18:7
26,19:3
26,22:3
26,23:2
26,25:5
26,27:5
26,28:8
26,30:1
26,32:7
26,33:10
26,34:11
26,35:10
26,44:5
27,1:1
27,2:5
27,4:6
27,5:6
27,6:6
27,8:1
27,9:1
27,10:5
27,11:3
27,12:1
27,13:4
27,14:1
27,15:3
27,16:1
27,17:4
27,18:2
27,19:2
27,20:1
27,21:1
27,23:3
27,24:5
27,26:5
27,28:3
27,29:5
27,30:6
27,31:3
27,32:2
27,33:5
27,35:5
28,1:2
28,2:2
28,3:3
28,4:9
28,5:3
28,6:3
28,7:3
28,8:4
28,9:2
28,10:8
28,12:2
28,13:1
28,14:2
28,15:6
28,16:4
28,17:1
28,18:1
28,19:5
28,20:4
28,21:4
28,22:5
28,23:6
28,24:8
28,25:3
28,26:8
28,27:3
28,29:8
28,30:9
28,32:1
28,33:2
28,34:3
28,36:1
28,37:2
28,38:3
28,39:2
28,40:2
28,41:6
28,42:6
28,44:3
29,2:10
29,4:1
29,5:11
29,6:11
29,7:5
29,8:4
29,16:4
29,18:7
29,19:3
29,22:3
29,23:2
29,25:5
29,27:5
29,28:8
29,30:1
29,31:8
29,32:7
29,33:10
29,34:11
29,35:10
29,44:5
30,1:7
30,2:11
30,5:12
30,6:12
30,7:6
30,8:5
30,9:7
30,10:1
30,11:9
30,12:7
30,13:10
30,14:7
30,15:3
30,16:5
30,17:10
30,18:8
30,19:4
30,20:5
30,21:5
30,23:3
30,24:1
30,25:6
30,26:1
30,28:9
30,29:1
30,31:9
30,32:8
30,33:11
30,34:12
30,35:11
30,44:6
31,2:2
31,4:9
31,5:3
31,7:3
31,8:4
31,10:8
31,22:5
31,25:3
31,27:3
31,30:9
31,32:1
31,33:2
31,34:3
31,35:2
31,36:1
31,44:3
32,1:1
32,2:3
32,3:4
32,4:8
32,5:4
32,6:4
32,7:2
32,8:3
32,9:1
32,10:7
32,11:1
32,12:1
32,13:2
32,14:1
32,15:5
32,16:3
32,17:2
32,19:4
32,20:3
32,21:3
32,22:4
32,23:5
32,24:7
32,25:2
32,26:7
32,27:2
32,29:7
32,30:8
32,31:1
32,33:3
32,34:4
32,35:3
32,37:3
32,38:2
32,39:3
32,40:3
32,41:5
32,42:5
32,43:5
32,44:2
32,45:2
33,1:4
33,3:1
33,4:11
33,5:1
33,6:1
33,7:5
33,8:6
33,9:4
33,10:10
33,11:2
33,12:4
33,13:1
33,14:4
33,15:8
33,16:6
33,17:1
33,18:3
33,19:7
33,20:6
33,21:6
33,22:7
33,23:8
33,24:10
33,25:5
33,26:10
33,27:5
33,29:10
33,30:11
33,31:2
33,32:3
33,34:1
33,36:3
33,38:5
33,41:8
33,42:8
33,44:5
34,1:5
34,2:1
34,4:12
34,7:6
34,8:7
34,9:5
34,10:11
34,11:3
34,12:5
34,13:2
34,14:5
34,15:9
34,16:7
34,17:2
34,18:4
34,19:8
34,20:7
34,21:7
34,23:9
34,24:11
34,25:6
34,26:11
34,28:3
34,29:11
34,31:3
34,32:4
34,33:1
34,35:1
34,36:4
34,44:6
35,1:4
35,3:1
35,4:11
35,5:1
35,6:1
35,7:5
35,8:6
35,9:4
35,10:10
35,11:2
35,12:4
35,13:1
35,14:4
35,15:8
35,16:6
35,17:1
35,18:3
35,19:7
35,20:6
35,21:6
35,22:7
35,23:8
35,24:10
35,25:5
35,26:10
35,27:5
35,29:10
35,30:11
35,31:2
35,32:3
35,34:1
35,36:3
35,38:5
35,41:8
35,42:8
35,43:8
35,44:5
36,2:3
36,4:8
36,7:2
36,8:3
36,10:7
36,25:2
36,28:1
36,33:3
36,35:3
36,37:3
36,38:2
36,44:2
37,4:11
37,7:5
37,8:6
37,10:10
37,25:5
37,28:2
37,32:3
37,38:5
37,41:8
37,44:5
38,4:6
38,8:1
38,10:5
38,28:3
38,32:2
38,33:5
38,35:5
38,37:5
38,39:5
38,40:5
38,41:3
38,42:3
38,43:3
38,45:4
38,46:1
38,47:1
38,48:1
38,50:4
38,51:4
38,52:4
39,4:11
39,7:5
39,8:6
39,10:10
39,25:5
39,28:2
39,32:3
39,38:5
39,41:8
39,42:8
39,43:8
39,44:5
40,4:11
40,7:5
40,8:6
40,10:10
40,25:5
40,28:2
40,32:3
40,38:5
40,41:8
40,42:8
40,43:8
40,44:5
41,2:8
41,4:3
41,7:3
41,8:2
41,10:2
41,25:3
41,28:6
41,32:5
41,33:8
41,35:8
41,38:3
41,39:8
41,40:8
41,44:3
42,2:8
42,4:3
42,7:3
42,8:2
42,10:2
42,25:3
42,28:6
42,32:5
42,33:8
42,35:8
42,38:3
42,39:8
42,40:8
42,44:3
43,2:8
43,4:3
43,8:2
43,10:2
43,25:3
43,32:5
43,38:3
43,44:3
43,45:7
44,2:5
44,4:6
44,5:6
44,6:6
44,10:5
44,16:1
44,18:2
44,19:2
44,22:2
44,23:3
44,24:5
44,26:5
44,28:3
44,29:5
44,30:6
44,31:3
44,32:2
44,33:5
44,34:6
44,35:5
44,36:2
44,37:5
44,39:5
44,40:5
44,41:3
44,42:3
44,43:3
44,45:4
45,2:1
45,4:10
45,10:9
45,25:4
45,38:4
45,46:5
45,48:5
45,49:4
46,2:6
46,4:5
46,10:4
46,25:1
46,38:1
46,49:1
46,50:3
47,2:6
47,4:5
47,10:4
47,25:1
47,38:1
47,49:1
47,50:3
47,51:3
48,2:6
48,4:5
48,10:4
48,25:1
48,38:1
48,49:1
48,50:3
48,51:3
48,52:3
48,53:5
48,54:3
48,55:4
48,56:3
49,2:5
49,4:6
49,10:5
49,46:1
49,47:1
49,48:1
49,50:4
49,51:4
49,52:4
49,53:6
49,54:2
49,55:5
49,56:2
49,57:5
49,58:5
50,2:9
50,4:2
50,10:1
50,25:4
50,38:4
50,47:3
50,48:3
50,49:4
50,53:2
50,54:6
50,55:1
50,56:6
50,57:1
50,58:1
51,2:9
51,4:2
51,10:1
51,25:4
51,38:4
51,48:3
51,49:4
52,4:2
52,10:1
52,48:3
52,49:4
52,53:2
53,10:1
53,48:5
53,49:6
53,50:2
53,54:8
54,4:8
54,10:7
54,48:3
54,49:2
54,50:6
54,55:7
55,4:1
55,49:5
55,50:1
55,56:7
56,4:8
56,10:7
56,48:3
56,49:2
56,50:6
56,55:7
56,57:7
57,4:1
57,49:5
57,50:1
58,4:1

<setup times backward>
1,4:7
1,7:1
1,8:2
1,10:6
1,16:2
1,19:3
1,22:3
1,23:4
1,24:6
1,27:1
1,30:7
2,1:4
2,4:11
2,7:5
2,8:6
2,9:4
2,10:10
2,11:2
2,12:4
2,13:1
2,14:4
2,15:8
2,16:6
2,17:1
2,18:3
2,19:7
2,20:6
2,21:6
2,22:7
2,23:8
2,24:10
2,26:10
2,27:5
2,28:2
2,29:10
2,30:11
2,31:2
2,32:3
2,36:3
2,41:8
2,42:8
2,43:8
2,44:5
2,45:1
2,46:6
2,47:6
2,48:6
2,49:5
2,50:9
2,51:9
3,1:5
3,2:1
3,4:12
3,7:6
3,8:7
3,9:5
3,10:11
3,11:3
3,12:5
3,13:2
3,14:5
3,15:9
3,16:7
3,17:2
3,18:4
3,19:8
3,20:7
3,23:9
3,24:11
3,25:6
3,28:3
3,32:4
3,33:1
3,35:1
5,1:5
5,2:1
5,4:12
5,7:6
5,8:7
5,9:5
5,10:11
5,11:3
5,12:5
5,13:2
5,14:5
5,15:9
5,16:7
5,17:2
5,18:4
5,19:8
5,20:7
5,21:7
5,22:8
5,23:9
5,24:11
5,25:6
5,26:11
5,27:6
5,28:3
5,29:11
5,30:12
5,31:3
5,32:4
5,33:1
5,35:1
5,44:6
6,1:5
6,2:1
6,4:12
6,7:6
6,8:7
6,9:5
6,10:11
6,11:3
6,12:5
6,13:2
6,14:5
6,15:9
6,16:7
6,17:2
6,18:4
6,19:8
6,20:7
6,21:7
6,22:8
6,25:6
6,26:11
6,27:6
6,28:3
6,29:11
6,30:12
6,32:4
6,33:1
6,35:1
6,44:6
7,4:6
7,8:1
7,10:5
7,15:3
7,16:1
7,19:2
7,20:1
7,21:1
7,22:2
7,23:3
7,24:5
7,26:5
7,29:5
7,30:6
7,41:3
7,42:3
8,4:5
8,10:4
8,15:2
8,19:1
8,22:1
8,23:2
8,24:4
8,26:4
8,29:4
8,30:5
8,41:2
8,42:2
8,43:2
9,4:7
9,7:1
9,8:2
9,10:6
9,16:2
9,19:3
9,22:3
9,23:4
9,24:6
9,27:1
9,30:7
10,4:1
10,30:1
10,53:1
11,1:2
11,4:9
11,7:3
11,8:4
11,9:2
11,10:8
11,12:2
11,16:4
11,18:1
11,19:5
11,22:5
11,23:6
11,24:8
11,27:3
11,30:9
11,32:1
12,4:7
12,7:1
12,8:2
12,10:6
12,15:4
12,16:2
12,19:3
12,22:3
12,23:4
12,24:6
12,27:1
12,30:7
13,1:3
13,4:10
13,7:4
13,8:5
13,9:3
13,10:9
13,11:1
13,12:3
13,14:3
13,15:7
13,16:5
13,18:2
13,19:6
13,22:6
13,23:7
13,24:9
13,27:4
13,28:1
13,30:10
13,32:2
14,4:7
14,7:1
14,8:2
14,10:6
14,15:4
14,16:2
14,19:3
14,22:3
14,23:4
14,24:6
14,27:1
14,30:7
15,4:3
15,10:2
15,24:2
15,30:3
16,4:5
16,10:4
16,15:2
16,22:1
16,24:4
16,26:4
16,29:4
16,30:5
17,1:3
17,4:10
17,7:4
17,8:5
17,9:3
17,10:9
17,11:1
17,12:3
17,14:3
17,15:7
17,16:5
17,18:2
17,19:6
17,22:6
17,23:7
17,24:9
17,27:4
17,28:1
17,30:10
17,32:2
18,1:1
18,4:8
18,7:2
18,8:3
18,9:1
18,10:7
18,12:1
18,14:1
18,15:5
18,16:3
18,20:3
18,21:3
18,22:4
18,24:7
18,25:2
18,26:7
18,27:2
18,29:7
18,30:8
18,44:2
19,4:4
19,10:3
19,15:1
19,24:3
19,26:3
19,29:3
19,30:4
20,4:5
20,10:4
20,15:2
20,19:1
20,22:1
20,23:2
20,24:4
20,30:5
21,4:5
21,10:4
21,15:2
21,19:1
21,22:1
21,23:2
21,24:4
21,30:5
22,4:4
22,10:3
22,15:1
22,23:1
22,24:3
22,26:3
22,29:3
23,4:3
23,10:2
23,24:2
23,26:2
23,29:2
23,30:3
24,4:1
24,30:1
25,4:6
25,8:1
25,10:5
25,15:3
25,16:1
25,19:2
25,20:1
25,21:1
25,22:2
25,23:3
25,24:5
25,26:5
25,29:5
25,30:6
25,41:3
25,42:3
25,43:3
25,46:1
25,47:1
25,48:1
25,50:4
25,51:4
26,4:1
26,30:1
27,4:6
27,8:1
27,10:5
27,15:3
27,16:1
27,19:2
27,20:1
27,21:1
27,22:2
27,23:3
27,24:5
27,26:5
27,29:5
28,1:2
28,4:9
28,7:3
28,8:4
28,9:2
28,10:8
28,12:2
28,14:2
28,15:6
28,16:4
28,18:1
28,19:5
28,20:4
28,21:4
28,22:5
28,23:6
28,24:8
28,25:3
28,26:8
28,27:3
28,29:8
28,30:9
28,36:1
28,38:3
28,41:6
28,42:6
28,44:3
29,4:1
29,30:1
31,1:2
31,4:9
31,7:3
31,8:4
31,9:2
31,10:8
31,12:2
31,14:2
31,15:6
31,16:4
31,18:1
31,19:5
31,20:4
31,21:4
31,22:5
31,23:6
31,24:8
31,25:3
31,26:8
31,27:3
31,29:8
31,30:9
31,32:1
31,44:3
32,1:1
32,4:8
32,7:2
32,8:3
32,9:1
32,10:7
32,12:1
32,14:1
32,15:5
32,16:3
32,19:4
32,20:3
32,21:3
32,22:4
32,23:5
32,24:7
32,25:2
32,26:7
32,27:2
32,29:7
32,30:8
32,38:2
32,41:5
32,42:5
32,43:5
32,44:2
33,1:4
33,4:11
33,7:5
33,8:6
33,9:4
33,10:10
33,11:2
33,12:4
33,13:1
33,14:4
33,15:8
33,16:6
33,17:1
33,18:3
33,19:7
33,20:6
33,21:6
33,22:7
33,23:8
33,24:10
33,25:5
33,26:10
33,27:5
33,28:2
33,29:10
33,30:11
33,31:2
33,32:3
33,36:3
33,38:5
33,41:8
33,42:8
33,44:5
34,1:5
34,2:1
34,4:12
34,7:6
34,8:7
34,9:5
34,10:11
34,11:3
34,12:5
34,13:2
34,14:5
34,15:9
34,16:7
34,17:2
34,18:4
34,19:8
34,20:7
34,21:7
34,22:8
34,23:9
34,24:11
34,25:6
34,26:11
34,27:6
34,28:3
34,29:11
34,30:12
34,31:3
34,32:4
34,33:1
34,35:1
34,44:6
35,1:4
35,4:11
35,7:5
35,8:6
35,9:4
35,10:10
35,11:2
35,12:4
35,13:1
35,14:4
35,15:8
35,16:6
35,17:1
35,18:3
35,19:7
35,20:6
35,21:6
35,22:7
35,23:8
35,24:10
35,25:5
35,26:10
35,27:5
35,28:2
35,29:10
35,30:11
35,31:2
35,32:3
35,36:3
35,38:5
35,41:8
35,42:8
35,44:5
36,1:1
36,4:8
36,7:2
36,8:3
36,9:1
36,10:7
36,12:1
36,14:1
36,15:5
36,16:3
36,19:4
36,20:3
36,21:3
36,22:4
36,23:5
36,24:7
36,25:2
36,26:7
36,27:2
36,29:7
36,30:8
36,44:2
37,1:4
37,4:11
37,7:5
37,8:6
37,9:4
37,10:10
37,11:2
37,12:4
37,13:1
37,14:4
37,15:8
37,16:6
37,17:1
37,18:3
37,19:7
37,20:6
37,21:6
37,22:7
37,23:8
37,24:10
37,25:5
37,26:10
37,27:5
37,28:2
37,29:10
37,30:11
37,31:2
37,32:3
37,36:3
37,38:5
37,44:5
38,4:6
38,8:1
38,10:5
38,15:3
38,16:1
38,19:2
38,20:1
38,21:1
38,22:2
38,23:3
38,24:5
38,26:5
38,29:5
38,30:6
38,41:3
38,42:3
38,43:3
38,46:1
38,47:1
38,48:1
38,50:4
38,51:4
39,1:4
39,4:11
39,7:5
39,8:6
39,9:4
39,10:10
39,11:2
39,12:4
39,13:1
39,14:4
39,15:8
39,16:6
39,17:1
39,18:3
39,19:7
39,20:6
39,21:6
39,22:7
39,23:8
39,24:10
39,25:5
39,26:10
39,27:5
39,28:2
39,29:10
39,30:11
39,31:2
39,32:3
39,36:3
39,38:5
39,41:8
39,42:8
39,44:5
40,1:4
40,4:11
40,7:5
40,8:6
40,9:4
40,10:10
40,11:2
40,12:4
40,13:1
40,14:4
40,15:8
40,16:6
40,17:1
40,18:3
40,19:7
40,20:6
40,21:6
40,22:7
40,23:8
40,24:10
40,25:5
40,26:10
40,27:5
40,28:2
40,29:10
40,30:11
40,31:2
40,32:3
40,36:3
40,38:5
40,41:8
40,42:8
40,44:5
41,4:3
41,10:2
41,24:2
41,26:2
41,29:2
41,30:3
42,4:3
42,10:2
42,24:2
42,26:2
42,29:2
42,30:3
43,4:3
43,10:2
43,24:2
43,26:2
43,29:2
43,30:3
44,4:6
44,8:1
44,10:5
44,15:3
44,16:1
44,19:2
44,20:1
44,21:1
44,22:2
44,23:3
44,24:5
44,26:5
44,29:5
44,30:6
44,41:3
44,42:3
44,43:3
45,1:3
45,4:10
45,7:4
45,8:5
45,9:3
45,10:9
45,11:1
45,12:3
45,14:3
45,15:7
45,16:5
45,18:2
45,19:6
45,20:5
45,21:5
45,22:6
45,23:7
45,24:9
45,25:4
45,26:9
45,27:4
45,28:1
45,29:9
45,30:10
45,31:1
45,32:2
45,36:2
45,38:4
45,41:7
45,42:7
45,43:7
45,44:4
46,4:5
46,10:4
46,15:2
46,19:1
46,22:1
46,23:2
46,24:4
46,26:4
46,29:4
46,30:5
46,41:2
46,42:2
46,43:2
47,4:5
47,10:4
47,15:2
47,19:1
47,22:1
47,23:2
47,24:4
47,26:4
47,29:4
47,30:5
47,41:2
47,42:2
47,43:2
47,50:3
48,4:5
48,10:4
48,15:2
48,19:1
48,22:1
48,23:2
48,24:4
48,26:4
48,29:4
48,30:5
48,41:2
48,42:2
48,43:2
48,50:3
48,51:3
48,52:3
48,53:5
49,4:6
49,8:1
49,10:5
49,15:3
49,16:1
49,19:2
49,20:1
49,21:1
49,22:2
49,23:3
49,24:5
49,26:5
49,29:5
49,30:6
49,41:3
49,42:3
49,43:3
49,46:1
49,47:1
49,48:1
49,50:4
49,51:4
49,52:4
49,53:6
49,55:5
49,57:5
50,4:2
50,10:1
50,24:1
50,26:1
50,29:1
50,30:2
50,53:2
50,55:1
50,57:1
51,4:2
51,10:1
51,24:1
51,26:1
51,29:1
51,30:2
52,4:2
52,10:1
52,24:1
52,26:1
52,29:1
52,30:2
54,1:1
54,4:8
54,7:2
54,8:3
54,9:1
54,10:7
54,12:1
54,14:1
54,15:5
54,16:3
54,19:4
54,20:3
54,21:3
54,22:4
54,23:5
54,24:7
54,25:2
54,26:7
54,27:2
54,29:7
54,30:8
54,38:2
54,41:5
54,42:5
54,43:5
54,44:2
54,46:3
54,47:3
54,48:3
54,49:2
54,50:6
54,51:6
54,52:6
54,53:8
55,4:1
55,30:1
55,53:1
56,1:1
56,4:8
56,7:2
56,8:3
56,9:1
56,10:7
56,12:1
56,14:1
56,15:5
56,16:3
56,19:4
56,20:3
56,21:3
56,22:4
56,23:5
56,24:7
56,25:2
56,26:7
56,27:2
56,29:7
56,30:8
56,38:2
56,41:5
56,42:5
56,43:5
56,44:2
56,46:3
56,47:3
56,48:3
56,49:2
56,50:6
56,51:6
56,52:6
56,53:8
56,55:7
57,4:1
57,30:1
57,53:1
58,4:1
58,30:1
58,53:1

<end>

<optimal SALBP-1 value>
29


<rand seed>
467321153

